Route 1: 40 2 41 22 21 26 12 50 1 28 27
Route 2: 6 5 16 44 38 14 37 42 13 18
Route 3: 31 30 10 11 19 49 36 47 48 7
Route 4: 32 20 9 35 34 29 33 3
Route 5: 43 15 23 39 4 25 24
Route 6: 17 45 46 8
Vehicles: 6
Distance: 713.66
